CMD:
./solvers/bin/cadical --plain --no-reduce -t 1600 ./data/cnfs//bc57sensorsp2/bc57sensorsp2.90.cnf

c --- [ banner ] -------------------------------------------------------------
c 
c CaDiCaL SAT Solver
c Copyright (c) 2016-2024
c A. Biere, M. Fleury, N. Froleyks, K. Fazekas, F. Pollitt, T. Faller
c JKU Linz, University of Freiburg, TU Wien
c 
c Version 2.1.3 5296d3d2a9bf48c154ab2acb5e44625776d821bf
c g++ (Gentoo 12.3.1_p20230526 p2) 12.3.1 20230526 -Wall -Wextra -O3 -DNDEBUG
c Sat Aug 9 07:26:21 PDT 2025 Linux cedar2.int.cedar.computecanada.ca 5.14.0-362.24.2.el9_3.x86_64 x86_64
c 
c --- [ limit ] --------------------------------------------------------------
c 
c setting time limit to 1600 seconds real time (due to '-t 1600')
c 
c --- [ parsing input ] ------------------------------------------------------
c 
c reading DIMACS file from './data/cnfs//bc57sensorsp2/bc57sensorsp2.90.cnf'
c opening file to read './data/cnfs//bc57sensorsp2/bc57sensorsp2.90.cnf'
c found 'p cnf 181455 512884' header
c parsed 512884 clauses in 0.08 seconds process time
c 
c --- [ options ] ------------------------------------------------------------
c 
c   --compact=false                (different from default 'true')
c   --decompose=false              (different from default 'true')
c   --deduplicate=false            (different from default 'true')
c   --elim=false                   (different from default 'true')
c   --probe=false                  (different from default 'true')
c   --reduce=false                 (different from default 'true')
c   --subsume=false                (different from default 'true')
c   --ternary=false                (different from default 'true')
c   --transred=false               (different from default 'true')
c   --vivify=false                 (different from default 'true')
c 
c --- [ solving ] ------------------------------------------------------------
c 
c time measured in process time since initialization
c 
c  seconds  reductions  redundant  irredundant
c         MB    restarts       trail       variables
c          level   conflicts       glue          remaining
c 
c *  0.08 83  0 0   0    0    0  0% 0 495428 131513 72%
c {  0.14 85  0 0   0    0    0  0% 0 495428 131513 72%
c i  0.17 86 205 0   1  158  156 50% 1 495428 131377 72%
c i  0.18 86 197 0  17  206  203 46% 1 495428 131365 72%
c i  0.18 86 197 0  17  207  203 46% 1 495428 131359 72%
c i  0.19 86 206 0  18  263  257 44% 2 495428 131347 72%
c i  0.27 86 179 0  32  308  298 44% 3 495428 131336 72%
c i  0.27 86 172 0  37  323  312 44% 3 495428 131312 72%
c i  0.28 86 141 0  48  500  470 41% 3 495428 131306 72%
c i  0.29 86 140 0  49  502  471 41% 3 495428 131300 72%
c i  0.31 86 123 0  58  607  551 40% 3 495428 131292 72%
c i  0.31 86 122 0  58  614  557 40% 3 495428 131248 72%
c i  0.31 86 112 0  58  681  620 39% 3 495428 131243 72%
c i  0.32 86 111 0  58  685  623 39% 3 495428 131238 72%
c i  0.32 86 111 0  58  688  624 39% 3 495428 131223 72%
c i  0.32 86 109 0  58  707  640 39% 3 495428 131205 72%
c i  0.32 86 108 0  58  713  645 39% 3 495428 131153 72%
c i  0.39 86 96 0  73  891  807 39% 3 495428 131143 72%
c i  0.39 86 95 0  73  892  807 39% 3 495428 131124 72%
c i  0.39 86 95 0  73  893  807 39% 3 495428 131115 72%
c 
c  seconds  reductions  redundant  irredundant
c         MB    restarts       trail       variables
c          level   conflicts       glue          remaining
c 
c i  0.39 86 95 0  73  894  807 39% 3 495428 131096 72%
c i  0.39 86 95 0  73  895  807 39% 3 495428 131087 72%
c i  0.39 86 94 0  73  905  814 39% 3 495428 131079 72%
c i  0.39 86 91 0  73  949  854 39% 3 495428 131045 72%
c i  0.39 86 91 0  73  950  854 39% 3 495428 130992 72%
c i  0.39 86 91 0  73  955  857 39% 3 495428 130923 72%
c }  0.41 86 88 0  75 1000  900 39% 3 495428 130923 72%
c [  0.41 86  0 0  75 1000  900  0% 0 495428 130923 72%
c O  0.43 86 153 0  75 1004  904 56% 3 495428 130923 72%
c i  0.68 86 99 0  75 1111 1009 90% 2 495428 130922 72%
c ]  1.86 87 34 0  76 3001 2701 57% 5 495428 130922 72%
c {  1.86 87 88 0  76 3001 2701 39% 3 495428 130922 72%
c F  1.86 87 87 0  76 3006 2706 39% 3 495428 130922 72%
c i  1.96 87 78 0  91 3163 2846 40% 3 495428 130831 72%
c i  2.21 87 72 0 131 3409 3069 41% 3 495428 130739 72%
c i  2.44 87 65 0 164 3707 3330 43% 3 495428 130701 72%
c i  2.45 87 65 0 165 3714 3336 43% 3 495428 130684 72%
c i  2.45 87 65 0 165 3715 3336 43% 3 495428 130665 72%
c i  2.84 88 56 0 217 4183 3760 44% 3 495428 128119 71%
c i  2.87 88 56 0 220 4196 3771 44% 3 495428 127719 70%
c 
c  seconds  reductions  redundant  irredundant
c         MB    restarts       trail       variables
c          level   conflicts       glue          remaining
c 
c i  2.91 88 55 0 233 4236 3810 44% 3 495428 127599 70%
c i  2.93 88 55 0 236 4248 3820 44% 3 495428 127416 70%
c i  2.95 88 54 0 236 4303 3871 44% 3 495428 127364 70%
c i  3.27 88 50 0 299 4668 4204 44% 3 495428 127358 70%
c i  3.37 88 50 0 312 4780 4305 44% 3 495428 127353 70%
c i  3.55 88 48 0 337 4970 4478 45% 3 495428 127349 70%
c i  3.75 88 47 0 378 5148 4644 45% 3 495428 127338 70%
c i  3.92 88 46 0 411 5336 4810 45% 4 495428 127247 70%
c i  3.92 88 46 0 415 5346 4819 45% 4 495428 127199 70%
c i  3.92 88 46 0 415 5347 4819 45% 4 495428 127156 70%
c i  3.92 88 46 0 415 5348 4819 45% 4 495428 126989 70%
c i  3.92 88 46 0 416 5350 4820 45% 4 495428 126969 70%
c i  3.92 88 45 0 416 5351 4820 45% 4 495428 126965 70%
c i  3.92 88 45 0 416 5354 4822 45% 4 495428 126958 70%
c i  3.93 88 45 0 416 5363 4830 45% 4 495428 126914 70%
c i  4.10 88 44 0 439 5522 4970 45% 4 495428 126818 70%
c i  4.13 88 44 0 445 5542 4983 45% 4 495428 126759 70%
c i  4.13 88 44 0 445 5546 4985 45% 4 495428 126749 70%
c i  4.16 88 44 0 451 5584 5010 45% 4 495428 126706 70%
c i  4.17 88 44 0 453 5593 5017 45% 4 495428 126664 70%
c 
c  seconds  reductions  redundant  irredundant
c         MB    restarts       trail       variables
c          level   conflicts       glue          remaining
c 
c i  4.41 88 42 0 483 5887 5286 45% 4 495428 126472 70%
c i  4.41 88 42 0 484 5889 5287 45% 4 495428 126429 70%
c i  4.50 88 41 0 497 5979 5368 45% 4 495428 126420 70%
c #  4.53 88 41 0 504 6009 5396 45% 4 495428 126420 70%
c i  4.55 88 41 0 506 6017 5403 45% 4 495428 126383 70%
c i  4.66 88 41 0 529 6113 5489 46% 4 495428 126292 70%
c i  4.82 88 40 0 557 6291 5654 46% 4 495428 126286 70%
c i  4.83 88 40 0 557 6292 5654 46% 4 495428 126266 70%
c i  4.91 88 39 0 575 6403 5754 46% 4 495428 126265 70%
c i  4.98 88 39 0 575 6506 5838 45% 4 495428 126263 70%
c i  4.99 88 38 0 575 6522 5848 45% 4 495428 126259 70%
c i  5.24 88 37 0 592 6807 6097 46% 4 495428 126257 70%
c i  5.26 88 37 0 595 6835 6120 46% 4 495428 126214 70%
c }  5.44 88 37 0 617 7002 6271 46% 4 495428 126214 70%
c [  5.44 88 34 0 617 7002 6271 57% 5 495428 126214 70%
c i  6.39 88 29 0 618 7554 6675 57% 5 495428 126122 70%
c i  6.49 88 29 0 618 7624 6703 57% 5 495428 121626 67%
c i  6.69 88 28 0 618 7739 6782 57% 5 495428 109393 60%
c i  6.75 88 27 0 618 7774 6795 57% 5 495428 108445 60%
c i  6.83 88 27 0 618 7834 6842 57% 5 495428 108369 60%
c 
c  seconds  reductions  redundant  irredundant
c         MB    restarts       trail       variables
c          level   conflicts       glue          remaining
c 
c ]  6.83 88 27 0 618 7840 6845 57% 5 495428 107439 59%
c 0  6.83 88 27 0 618 7840 6845 57% 5 495428 107439 59%
c 
c --- [ result ] -------------------------------------------------------------
c 
s UNSATISFIABLE
c 
c --- [ run-time profiling ] -------------------------------------------------
c 
c process time taken by individual solving procedures
c (percentage relative to process time for solving)
c 
c         6.75  100.00% search
c         3.86   57.13% unstable
c         2.84   42.07% stable
c         0.08    1.20% parse
c         0.05    0.80% lucky
c         0.00    0.00% simplify
c   =================================
c         6.75   98.81% solve
c 
c last line shows process time for solving
c (percentage relative to total process time)
c 
c --- [ statistics ] ---------------------------------------------------------
c 
c chronological:              3323        42.39 %  of conflicts
c conflicts:                  7840      1161.03    per second
c decisions:                 36040      5337.20    per second
c fixed:                     74016        40.79 %  of all variables
c learned:                    7490        95.54 %  per conflict
c learned_lits:             314096       100.00 %  learned literals
c minimized:                     0         0.00 %  learned literals
c shrunken:                 111130        35.38 %  learned literals
c minishrunken:              58502        18.63 %  learned literals
c otfs:                         65         0.83 %  of conflict
c propagations:           60990451         9.03 M  per second
c rephased:                      3      2613.33    interval
c restarts:                    618        12.69    interval
c stabilizing:                   2        36.21 %  of conflicts
c subsumed:                    572         0.11 %  of all clauses
c strengthened:                 65         0.01 %  of all clauses
c 
c seconds are measured in process time for solving
c 
c --- [ resources ] ----------------------------------------------------------
c 
c total process time since initialization:         6.83    seconds
c total real time since initialization:            6.94    seconds
c maximum resident set size of process:           86.55    MB
c 
c --- [ shutting down ] ------------------------------------------------------
c 
c exit 20
